40
     6    22    44    42    58    22    52    64    28     3    72    24    97    30    36    53    75    23    54    83    99    54    16    51    33    49    89    97    72    86    16    63    37    97    23    95    78    67     9    42
     6     4     9    10     1     1     3     9     4     1    10     6     6     3     5     9     5     4     5    10     8     7     5    10    10     8     8     1     5     4     5     7     5     3     8     3    10     3     3     3
   498   605   344   361   429   599   436   351   308   263   570   415   274   225   586   311   501   237   518   217   334   289   245   523   513   292   587   581   255   371   487   538   303   541   575   510   415   600   346   355
